7818.0
1 1 0 0 0 0 0 0 0 0 0 1 1 1 0 0 0 0 1 1 1 1 1 0 1 1 0 1 1 0 
18 19 11 24 25 22 25 21 27 27 24 1 13 22 18 11 21 11 12 0 25 25 22 20 20 13 27 18 27 27 28 24 13 13 0 22 25 12 21 11 27 12 28 24 24 25 25 22 22 11 21 0 0 18 18 18 19 20 13 28 24 27 1 28 27 27 1 27 28 28 